s td 175 10 193
b 1 14 38 143
b 2 8 29 185
b 3 32 38 143
b 4 64 67 79
b 5 74 97 119
b 6 80 96 191
b 7 8 72 136
b 8 58 110 155
b 9 16 162 178
b 10 6 90 164
b 11 70 71 177
b 12 8 72 185
b 13 16 168 178
b 14 57 168 178
b 15 4 23 125
b 16 20 31 151 190
b 17 20 45 151 190
b 18 35 109 128
b 19 38 41 47 73
b 20 17 58 110
b 21 63 152 153
b 22 43 64 125
b 23 17 72 185
b 24 4 38 41 73
b 25 6 90 185
b 26 10 95 99 154
b 27 17 43 110
b 28 57 119 179
b 29 41 91 121
b 30 68 134 142
b 31 45 151 158
b 32 70 152 153
b 33 10 71 154
b 34 7 88 133 180
b 35 1 10 40 43 70 88 113 122 150 152
b 36 10 40 43 70 88 113 122 150 152 184
b 37 43 70 88 101 113 122 129 150 152 184
b 38 43 70 88 101 113 122 124 129 150 184
b 39 43 70 88 101 113 118 124 129 150 184
b 40 43 70 88 101 113 118 124 129 167 184
b 41 43 70 88 101 113 115 118 167 184
b 42 26 43 88 101 113 115 118 167 184
b 43 26 43 45 88 101 113 115 118 167
b 44 26 43 45 101 113 115 118 141 167
b 45 43 45 49 101 113 115 118 141 167
b 46 43 49 101 113 115 118 141 167 188
b 47 43 49 101 113 115 118 146 167 188
b 48 43 49 101 113 118 146 163 167 188
b 49 43 101 108 113 118 146 163 167 176
b 50 21 43 108 113 118 144 163 167 176
b 51 21 43 113 114 118 144 163 167 176
b 52 21 22 43 113 114 118 144 163 176
b 53 22 43 113 114 118 132 144 163 176
b 54 22 43 113 114 117 118 132 163 176
b 55 22 37 43 113 114 117 118 132 163
b 56 37 43 113 114 117 118 148 163
b 57 37 43 113 114 118 148 163 182
b 58 19 37 43 113 114 118 148 182
b 59 19 37 43 60 113 114 118 182
b 60 19 28 43 60 113 114 118 182
b 61 19 28 43 60 113 118 160 182
b 62 2 19 28 60 160
b 63 19 28 43 113 118 143 160 182
b 64 28 43 52 69 113 118 143 160
b 65 28 43 52 69 91 143 160
b 66 43 52 69 91 109 143
b 67 4 43 91 109 143
b 68 4 41 91 109 143
b 69 4 38 41 143
b 70 4 43 109 125
b 71 52 69 91 109 128
b 72 28 50 52 91 143 160
b 73 50 91 143 145 160
b 74 28 43 52 69 113 118 159
b 75 5 28 52 118 159
b 76 43 52 65 69 113 118 159
b 77 43 52 65 69 81 159
b 78 52 69 81 93 159
b 79 43 69 81 166
b 80 65 113 118 159 189
b 81 65 113 118 138 189
b 82 118 138 173 189
b 83 65 138 181 189
b 84 19 77 143 160 182
b 85 19 82 148 182
b 86 55 148 163 182
b 87 37 117 132 137
b 88 46 117 132 176
b 89 44 132 144 176
b 90 21 114 118 147 167
b 91 21 135 147 167
b 92 3 21 108 144 167
b 93 101 104 108 146 176
b 94 49 87 146 163 188
b 95 49 53 87 146 163
b 96 53 59 87 146 163
b 97 18 53 59 87
b 98 53 59 66 146 163
b 99 59 66 78 146
b 100 53 59 66 105 163
b 101 49 53 87 187
b 102 49 87 146 171 188
b 103 49 171 174 188
b 104 51 101 115 146 188
b 105 12 115 141 188
b 106 111 113 118 124 150
b 107 106 122 124 129 150
b 108 54 101 122 129 152
b 109 10 40 70 71 184
b 110 1 10 40 43 70 88 100 113 122 150
b 111 1 10 40 43 75 88 100 113 122 150
b 112 10 40 43 75 88 100 102 113 122 150
b 113 10 40 43 75 88 100 102 112 113 150
b 114 10 40 43 75 88 100 102 112 172
b 115 10 40 43 75 76 88 100 102 172
b 116 10 40 43 75 76 86 88 100 172
b 117 10 40 43 76 86 88 100 131 172
b 118 10 40 43 76 86 88 131 172 191
b 119 10 40 43 76 86 131 172 183 191
b 120 13 43 76 86 131 172 179 183 191
b 121 13 43 76 86 131 172 175 179
b 122 43 76 84 86 131 172 175 179
b 123 43 76 84 86 172 175 179 192
b 124 11 43 76 84 172 175 179 192
b 125 11 43 84 85 175 179 192
b 126 11 43 84 85 89 179 192
b 127 11 43 85 89 139 179 192
b 128 11 43 62 89 139 192
b 129 11 33 43 62 89 139
b 130 11 33 43 62 185
b 131 11 36 43 185
b 132 11 33 62 169 185
b 133 33 48 62 89 139
b 134 85 89 107 139 179
b 135 34 85 89 107 139
b 136 85 107 120 179
b 137 84 131 161 175
b 138 13 92 179 183 191
b 139 13 92 168 179 191
b 140 13 56 92 168 179
b 141 13 92 130 183
b 142 10 40 68 131 183 191
b 143 10 24 68 183 191
b 144 24 68 103 183
b 145 10 24 68 134
b 146 10 88 116 191
b 147 88 96 116 191
b 148 27 40 86 100 131
b 149 75 76 86 100 123
b 150 75 76 102 172 186
b 151 102 112 113 127 150
b 152 75 102 122 150 156
b 153 1 25 75 100 122
b 154 1 40 70 100 140
b 155 6 33 169 185
b 156 7 45 88 133
b 157 26 45 88 133
b 158 9 66 105 163
b 159 15 30 54 101
b 160 30 54 101 152
b 161 17 36 43 185
b 162 39 85 107 120
b 163 24 42 103 183
b 164 56 57 168 179
b 165 61 77 143 182
b 166 83 88 96 116
b 167 94 101 104 108
b 168 92 98 168 191
b 169 114 118 126 147
b 170 112 113 127 149
b 171 3 108 157 167
b 172 45 49 141 158
b 173 54 122 129 165
b 174 138 170 181 189
b 175 11 62 169 193
1 69
2 12
3 69
4 22
5 28
6 147
7 12
8 20
9 13
10 25
11 109
12 23
13 14
14 164
15 70
16 17
17 31
18 71
19 24
20 27
21 32
22 70
23 161
24 69
25 155
26 33
27 161
28 164
29 68
30 145
31 172
32 35
33 109
34 156
35 36
35 110
36 37
36 109
37 38
37 108
38 39
38 107
39 40
39 106
40 41
41 42
42 43
43 157
43 44
44 45
45 172
45 46
46 47
46 105
47 48
47 104
48 49
48 94
49 50
49 93
50 51
50 92
51 52
51 90
52 53
53 54
53 89
54 55
54 88
55 56
55 87
56 57
57 58
57 86
58 59
58 85
59 60
60 61
61 62
61 63
63 64
63 84
64 65
64 74
65 66
65 72
66 67
66 71
67 68
67 70
68 69
72 73
74 75
74 76
76 77
76 80
77 78
77 79
80 81
81 82
81 83
83 174
84 165
90 169
90 91
92 171
93 167
94 95
94 102
95 96
95 101
96 97
96 98
98 99
98 100
100 158
102 103
108 160
108 173
110 111
110 154
111 112
111 153
112 113
112 152
113 114
113 151
114 115
115 116
115 150
116 117
116 149
117 118
117 148
118 119
118 146
119 120
119 142
120 121
120 138
121 122
122 123
122 137
123 124
124 125
125 126
126 127
127 128
127 134
128 129
129 130
129 133
130 131
130 132
131 161
132 155
132 175
134 135
134 136
136 162
138 139
138 141
139 168
139 140
140 164
142 143
143 144
143 145
144 163
146 147
147 166
151 170
156 157
159 160
